problem_generation/data/GISP/train/er_n=61_m=1089_p=0.60_SET2_setparam=100.00_alpha=0.50_359.lp
maximize
OBJ:100x0 + 100x1 + 100x2 + 100x3 + 100x4 + 100x5 + 100x6 + 100x7 + 100x8 + 100x9 + 100x10 + 100x11 + 100x12 + 100x13 + 100x14 + 100x15 + 100x16 + 100x17 + 100x18 + 100x19 + 100x20 + 100x21 + 100x22 + 100x23 + 100x24 + 100x25 + 100x26 + 100x27 + 100x28 + 100x29 + 100x30 + 100x31 + 100x32 + 100x33 + 100x34 + 100x35 + 100x36 + 100x37 + 100x38 + 100x39 + 100x40 + 100x41 + 100x42 + 100x43 + 100x44 + 100x45 + 100x46 + 100x47 + 100x48 + 100x49 + 100x50 + 100x51 + 100x52 + 100x53 + 100x54 + 100x55 + 100x56 + 100x57 + 100x58 + 100x59 + 100x60 - y15_30 - y15_39 - y26_39 - y18_35 - y18_44 - y8_9 - y48_54 - y0_14 - y6_57 - y10_36 - y2_32 - y2_41 - y44_56 - y2_50 - y25_52 - y3_24 - y32_60 - y14_33 - y3_42 - y14_42 - y15_25 - y7_21 - y28_53 - y7_30 - y18_30 - y29_36 - y40_54 - y21_59 - y2_27 - y2_36 - y44_51 - y10_58 - y32_55 - y22_32 - y14_28 - y3_37 - y36_43 - y55_56 - y17_39 - y47_52 - y9_44 - y29_31 - y21_36 - y6_47 - y40_49 - y40_58 - y21_54 - y2_22 - y2_40 - y25_42 - y35_46 - y3_23 - y32_59 - y16_51 - y16_60 - y17_25 - y36_56 - y47_56 - y5_50 - y17_52 - y6_24 - y21_22 - y21_31 - y29_44 - y6_51 - y21_49 - y2_8 - y23_58 - y32_36 - y32_45 - y51_58 - y24_41 - y3_18 - y16_37 - y32_54 - y24_50 - y9_25 - y5_36 - y17_38 - y9_34 - y17_47 - y6_10 - y28_47 - y9_43 - y21_26 - y6_46 - y2_3 - y20_39 - y20_48 - y12_44 - y2_21 - y31_57 - y12_53 - y23_53 - y4_58 - y51_53 - y13_36 - y16_32 - y1_43 - y24_45 - y32_58 - y16_41 - y24_54 - y16_50 - y17_24 - y9_29 - y28_42 - y9_38 - y9_47 - y6_23 - y42_44 - y8_51 - y21_30 - y0_56 - y11_56 - y10_11 - y2_7 - y23_39 - y16_18 - y24_31 - y43_44 - y16_27 - y35_49 - y16_54 - y9_15 - y49_51 - y17_28 - y9_33 - y5_44 - y6_9 - y27_50 - y42_48 - y8_55 - y30_55 - y42_57 - y20_29 - y11_60 - y12_25 - y39_51 - y12_34 - y23_34 - y20_56 - y4_57 - y16_22 - y32_39 - y35_44 - y16_49 - y9_10 - y57_59 - y9_28 - y18_58 - y27_36 - y8_41 - y19_41 - y30_41 - y50_56 - y8_50 - y30_50 - y42_52 - y0_46 - y11_46 - y19_59 - y30_59 - y12_29 - y4_25 - y12_38 - y23_38 - y20_51 - y13_21 - y53_57 - y34_53 - y13_30 - y22_60 - y38_41 - y9_14 - y15_48 - y26_48 - y38_50 - y38_59 - y7_53 - y8_27 - y8_36 - y19_36 - y27_49 - y11_32 - y50_51 - y8_45 - y8_54 - y0_50 - y12_15 - y4_11 - y20_37 - y12_33 - y23_33 - y4_29 - y12_42 - y1_5 - y4_47 - y16_21 - y34_57 - y3_60 - y14_60 - y26_34 - y5_11 - y7_57 - y8_22 - y19_31 - y30_31 - y0_27 - y27_53 - y8_49 - y11_45 - y41_46 - y12_19 - y41_55 - y33_60 - y4_33 - y1_9 - y1_18 - y37_39 - y3_55 - y15_38 - y15_56 - y8_26 - y29_58 - y19_35 - y8_44 - y30_44 - y11_40 - y11_49 - y4_10 - y33_46 - y4_19 - y4_28 - y2_58 - y25_60 - y34_38 - y1_13 - y22_45 - y3_41 - y22_54 - y3_50 - y14_50 - y37_52 - y18_29 - y15_42 - y26_42 - y18_38 - y26_51 - y18_47 - y7_56 - y19_21 - y29_53 - y4_5 - y10_48 - y33_59 - y14_36 - y37_38 - y34_51 - y45_51 - y36_60 - y0_3 - y29_39 - y48_52 - y29_48 - y19_25 - y6_55 - y40_57 - y11_30 - y10_34 - y25_32 - y4_9 - y10_43 - y44_45 - y25_41 - y10_52 - y25_59 - y14_22 - y22_35 - y3_40 - y22_53 - y14_49 - y15_23 - y7_19 - y18_19 - y47_55 - y18_28 - y18_37 - y6_41 - y0_16 - y21_57 - y10_29 - y10_38 - y10_47 - y10_56 - y51_57 - y2_52 - y14_26 - y24_58 - y3_35 - y14_44 - y15_18 - y28_46 - y7_23 - y47_59 - y17_55 - y9_60 - y21_25 - y0_2 - y48_51 - y21_34 - y6_54 - y40_56 - y10_15 - y10_24 - y10_33 - y25_31 - y33_44 - y10_51 - y43_48 - y22_25 - y32_57 - y13_53 - y24_53 - y7_9 - y47_54 - y28_50 - y40_42 - y31_60 - y3_7 - y24_39 - y3_16 - y35_48 - y16_44 - y1_55 - y13_57 - y17_18 - y5_34 - y36_49 - y9_32 - y5_43 - y47_58 - y6_44 - y10_23 - y39_59 - y2_19 - y20_55 - y10_32 - y12_51 - y54_57 - y13_34 - y24_34 - y32_47 - y51_60 - y35_43 - y43_56 - y16_57 - y5_20 - y6_12 - y9_45 - y19_58 - y39_45 - y2_14 - y31_50 - y2_23 - y4_42 - y1_27 - y4_60 - y24_38 - y43_51 - y13_47 - y24_47 - y1_54 - y46_53 - y5_42 - y9_40 - y27_48 - y42_46 - y50_59 - y0_49 - y20_27 - y0_58 - y39_40 - y31_36 - y39_49 - y12_32 - y39_58 - y20_54 - y54_56 - y53_60 - y1_31 - y13_33 - y24_33 - y16_29 - y1_40 - y16_38 - y38_53 - y49_53 - y26_60 - y5_37 - y27_43 - y30_48 - y8_57 - y42_59 - y0_53 - y20_31 - y12_27 - y4_23 - y31_49 - y12_45 - y20_58 - y31_58 - y12_54 - y24_28 - y45_60 - y1_35 - y1_44 - y16_42 - y46_52 - y15_46 - y49_57 - y7_60 - y8_34 - y27_47 - y0_30 - y8_43 - y0_39 - y19_52 - y0_57 - y31_35 - y12_31 - y31_44 - y13_23 - y53_59 - y34_55 - y14_58 - y46_56 - y38_52 - y49_52 - y27_33 - y8_29 - y19_29 - y11_25 - y30_38 - y8_47 - y19_47 - y30_47 - y8_56 - y19_56 - y30_56 - y0_52 - y12_17 - y41_53 - y20_30 - y12_26 - y23_26 - y31_39 - y33_58 - y44_58 - y23_35 - y1_16 - y34_50 - y45_59 - y3_53 - y14_53 - y26_27 - y7_32 - y18_41 - y26_54 - y38_56 - y8_15 - y7_59 - y8_24 - y27_37 - y8_33 - y11_29 - y0_38 - y19_51 - y0_47 - y11_47 - y20_25 - y41_57 - y44_53 - y12_30 - y10_60 - y22_34 - y34_36 - y1_11 - y1_20 - y3_39 - y22_52 - y15_22 - y15_31 - y7_27 - y26_40 - y38_42 - y18_54 - y8_19 - y48_55 - y27_32 - y40_60 - y41_43 - y41_52 - y4_12 - y33_48 - y4_21 - y33_57 - y2_51 - y34_40 - y3_34 - y14_34 - y34_49 - y14_43 - y37_45 - y56_58 - y14_52 - y15_26 - y7_22 - y59_60 - y15_35 - y7_31 - y8_14 - y8_23 - y19_23 - y21_51 - y10_41 - y33_43 - y41_56 - y52_56 - y25_48 - y10_59 - y25_57 - y14_20 - y22_33 - y22_42 - y3_38 - y22_51 - y3_47
 Subject to
C1: x0+x1 <=1 
C2: x0+x2-y0_2 <=1 
C3: x0+x3-y0_3 <=1 
C4: x0+x5 <=1 
C5: x0+x6 <=1 
C6: x0+x7 <=1 
C7: x0+x8 <=1 
C8: x0+x11 <=1 
C9: x0+x14-y0_14 <=1 
C10: x0+x16-y0_16 <=1 
C11: x0+x17 <=1 
C12: x0+x20 <=1 
C13: x0+x21 <=1 
C14: x0+x26 <=1 
C15: x0+x27-y0_27 <=1 
C16: x0+x30-y0_30 <=1 
C17: x0+x35 <=1 
C18: x0+x36 <=1 
C19: x0+x38-y0_38 <=1 
C20: x0+x39-y0_39 <=1 
C21: x0+x43 <=1 
C22: x0+x45 <=1 
C23: x0+x46-y0_46 <=1 
C24: x0+x47-y0_47 <=1 
C25: x0+x49-y0_49 <=1 
C26: x0+x50-y0_50 <=1 
C27: x0+x52-y0_52 <=1 
C28: x0+x53-y0_53 <=1 
C29: x0+x54 <=1 
C30: x0+x56-y0_56 <=1 
C31: x0+x57-y0_57 <=1 
C32: x0+x58-y0_58 <=1 
C33: x0+x60 <=1 
C34: x1+x2 <=1 
C35: x1+x5-y1_5 <=1 
C36: x1+x6 <=1 
C37: x1+x9-y1_9 <=1 
C38: x1+x11-y1_11 <=1 
C39: x1+x12 <=1 
C40: x1+x13-y1_13 <=1 
C41: x1+x14 <=1 
C42: x1+x16-y1_16 <=1 
C43: x1+x17 <=1 
C44: x1+x18-y1_18 <=1 
C45: x1+x20-y1_20 <=1 
C46: x1+x22 <=1 
C47: x1+x27-y1_27 <=1 
C48: x1+x28 <=1 
C49: x1+x29 <=1 
C50: x1+x31-y1_31 <=1 
C51: x1+x33 <=1 
C52: x1+x35-y1_35 <=1 
C53: x1+x40-y1_40 <=1 
C54: x1+x43-y1_43 <=1 
C55: x1+x44-y1_44 <=1 
C56: x1+x49 <=1 
C57: x1+x50 <=1 
C58: x1+x51 <=1 
C59: x1+x52 <=1 
C60: x1+x54-y1_54 <=1 
C61: x1+x55-y1_55 <=1 
C62: x1+x58 <=1 
C63: x1+x60 <=1 
C64: x2+x3-y2_3 <=1 
C65: x2+x5 <=1 
C66: x2+x7-y2_7 <=1 
C67: x2+x8-y2_8 <=1 
C68: x2+x11 <=1 
C69: x2+x14-y2_14 <=1 
C70: x2+x16 <=1 
C71: x2+x17 <=1 
C72: x2+x19-y2_19 <=1 
C73: x2+x20 <=1 
C74: x2+x21-y2_21 <=1 
C75: x2+x22-y2_22 <=1 
C76: x2+x23-y2_23 <=1 
C77: x2+x27-y2_27 <=1 
C78: x2+x29 <=1 
C79: x2+x30 <=1 
C80: x2+x31 <=1 
C81: x2+x32-y2_32 <=1 
C82: x2+x34 <=1 
C83: x2+x36-y2_36 <=1 
C84: x2+x38 <=1 
C85: x2+x39 <=1 
C86: x2+x40-y2_40 <=1 
C87: x2+x41-y2_41 <=1 
C88: x2+x46 <=1 
C89: x2+x48 <=1 
C90: x2+x49 <=1 
C91: x2+x50-y2_50 <=1 
C92: x2+x51-y2_51 <=1 
C93: x2+x52-y2_52 <=1 
C94: x2+x54 <=1 
C95: x2+x57 <=1 
C96: x2+x58-y2_58 <=1 
C97: x3+x6 <=1 
C98: x3+x7-y3_7 <=1 
C99: x3+x8 <=1 
C100: x3+x10 <=1 
C101: x3+x11 <=1 
C102: x3+x13 <=1 
C103: x3+x16-y3_16 <=1 
C104: x3+x17 <=1 
C105: x3+x18-y3_18 <=1 
C106: x3+x23-y3_23 <=1 
C107: x3+x24-y3_24 <=1 
C108: x3+x27 <=1 
C109: x3+x29 <=1 
C110: x3+x30 <=1 
C111: x3+x31 <=1 
C112: x3+x33 <=1 
C113: x3+x34-y3_34 <=1 
C114: x3+x35-y3_35 <=1 
C115: x3+x36 <=1 
C116: x3+x37-y3_37 <=1 
C117: x3+x38-y3_38 <=1 
C118: x3+x39-y3_39 <=1 
C119: x3+x40-y3_40 <=1 
C120: x3+x41-y3_41 <=1 
C121: x3+x42-y3_42 <=1 
C122: x3+x45 <=1 
C123: x3+x46 <=1 
C124: x3+x47-y3_47 <=1 
C125: x3+x49 <=1 
C126: x3+x50-y3_50 <=1 
C127: x3+x52 <=1 
C128: x3+x53-y3_53 <=1 
C129: x3+x55-y3_55 <=1 
C130: x3+x57 <=1 
C131: x3+x60-y3_60 <=1 
C132: x4+x5-y4_5 <=1 
C133: x4+x7 <=1 
C134: x4+x9-y4_9 <=1 
C135: x4+x10-y4_10 <=1 
C136: x4+x11-y4_11 <=1 
C137: x4+x12-y4_12 <=1 
C138: x4+x13 <=1 
C139: x4+x14 <=1 
C140: x4+x16 <=1 
C141: x4+x19-y4_19 <=1 
C142: x4+x20 <=1 
C143: x4+x21-y4_21 <=1 
C144: x4+x23-y4_23 <=1 
C145: x4+x24 <=1 
C146: x4+x25-y4_25 <=1 
C147: x4+x28-y4_28 <=1 
C148: x4+x29-y4_29 <=1 
C149: x4+x32 <=1 
C150: x4+x33-y4_33 <=1 
C151: x4+x34 <=1 
C152: x4+x35 <=1 
C153: x4+x36 <=1 
C154: x4+x41 <=1 
C155: x4+x42-y4_42 <=1 
C156: x4+x43 <=1 
C157: x4+x47-y4_47 <=1 
C158: x4+x48 <=1 
C159: x4+x51 <=1 
C160: x4+x54 <=1 
C161: x4+x55 <=1 
C162: x4+x56 <=1 
C163: x4+x57-y4_57 <=1 
C164: x4+x58-y4_58 <=1 
C165: x4+x60-y4_60 <=1 
C166: x5+x9 <=1 
C167: x5+x11-y5_11 <=1 
C168: x5+x15 <=1 
C169: x5+x16 <=1 
C170: x5+x20-y5_20 <=1 
C171: x5+x21 <=1 
C172: x5+x22 <=1 
C173: x5+x24 <=1 
C174: x5+x25 <=1 
C175: x5+x29 <=1 
C176: x5+x32 <=1 
C177: x5+x34-y5_34 <=1 
C178: x5+x35 <=1 
C179: x5+x36-y5_36 <=1 
C180: x5+x37-y5_37 <=1 
C181: x5+x38 <=1 
C182: x5+x42-y5_42 <=1 
C183: x5+x43-y5_43 <=1 
C184: x5+x44-y5_44 <=1 
C185: x5+x50-y5_50 <=1 
C186: x5+x52 <=1 
C187: x5+x54 <=1 
C188: x5+x57 <=1 
C189: x5+x59 <=1 
C190: x5+x60 <=1 
C191: x6+x8 <=1 
C192: x6+x9-y6_9 <=1 
C193: x6+x10-y6_10 <=1 
C194: x6+x11 <=1 
C195: x6+x12-y6_12 <=1 
C196: x6+x15 <=1 
C197: x6+x16 <=1 
C198: x6+x17 <=1 
C199: x6+x19 <=1 
C200: x6+x22 <=1 
C201: x6+x23-y6_23 <=1 
C202: x6+x24-y6_24 <=1 
C203: x6+x28 <=1 
C204: x6+x29 <=1 
C205: x6+x30 <=1 
C206: x6+x32 <=1 
C207: x6+x33 <=1 
C208: x6+x35 <=1 
C209: x6+x36 <=1 
C210: x6+x38 <=1 
C211: x6+x39 <=1 
C212: x6+x41-y6_41 <=1 
C213: x6+x42 <=1 
C214: x6+x44-y6_44 <=1 
C215: x6+x46-y6_46 <=1 
C216: x6+x47-y6_47 <=1 
C217: x6+x48 <=1 
C218: x6+x50 <=1 
C219: x6+x51-y6_51 <=1 
C220: x6+x52 <=1 
C221: x6+x53 <=1 
C222: x6+x54-y6_54 <=1 
C223: x6+x55-y6_55 <=1 
C224: x6+x57-y6_57 <=1 
C225: x7+x9-y7_9 <=1 
C226: x7+x11 <=1 
C227: x7+x14 <=1 
C228: x7+x15 <=1 
C229: x7+x19-y7_19 <=1 
C230: x7+x20 <=1 
C231: x7+x21-y7_21 <=1 
C232: x7+x22-y7_22 <=1 
C233: x7+x23-y7_23 <=1 
C234: x7+x25 <=1 
C235: x7+x27-y7_27 <=1 
C236: x7+x28 <=1 
C237: x7+x29 <=1 
C238: x7+x30-y7_30 <=1 
C239: x7+x31-y7_31 <=1 
C240: x7+x32-y7_32 <=1 
C241: x7+x36 <=1 
C242: x7+x37 <=1 
C243: x7+x39 <=1 
C244: x7+x41 <=1 
C245: x7+x42 <=1 
C246: x7+x51 <=1 
C247: x7+x52 <=1 
C248: x7+x53-y7_53 <=1 
C249: x7+x55 <=1 
C250: x7+x56-y7_56 <=1 
C251: x7+x57-y7_57 <=1 
C252: x7+x58 <=1 
C253: x7+x59-y7_59 <=1 
C254: x7+x60-y7_60 <=1 
C255: x8+x9-y8_9 <=1 
C256: x8+x11 <=1 
C257: x8+x12 <=1 
C258: x8+x13 <=1 
C259: x8+x14-y8_14 <=1 
C260: x8+x15-y8_15 <=1 
C261: x8+x18 <=1 
C262: x8+x19-y8_19 <=1 
C263: x8+x21 <=1 
C264: x8+x22-y8_22 <=1 
C265: x8+x23-y8_23 <=1 
C266: x8+x24-y8_24 <=1 
C267: x8+x26-y8_26 <=1 
C268: x8+x27-y8_27 <=1 
C269: x8+x29-y8_29 <=1 
C270: x8+x30 <=1 
C271: x8+x32 <=1 
C272: x8+x33-y8_33 <=1 
C273: x8+x34-y8_34 <=1 
C274: x8+x35 <=1 
C275: x8+x36-y8_36 <=1 
C276: x8+x37 <=1 
C277: x8+x38 <=1 
C278: x8+x39 <=1 
C279: x8+x41-y8_41 <=1 
C280: x8+x43-y8_43 <=1 
C281: x8+x44-y8_44 <=1 
C282: x8+x45-y8_45 <=1 
C283: x8+x46 <=1 
C284: x8+x47-y8_47 <=1 
C285: x8+x48 <=1 
C286: x8+x49-y8_49 <=1 
C287: x8+x50-y8_50 <=1 
C288: x8+x51-y8_51 <=1 
C289: x8+x52 <=1 
C290: x8+x53 <=1 
C291: x8+x54-y8_54 <=1 
C292: x8+x55-y8_55 <=1 
C293: x8+x56-y8_56 <=1 
C294: x8+x57-y8_57 <=1 
C295: x8+x58 <=1 
C296: x9+x10-y9_10 <=1 
C297: x9+x11 <=1 
C298: x9+x12 <=1 
C299: x9+x14-y9_14 <=1 
C300: x9+x15-y9_15 <=1 
C301: x9+x16 <=1 
C302: x9+x22 <=1 
C303: x9+x23 <=1 
C304: x9+x25-y9_25 <=1 
C305: x9+x27 <=1 
C306: x9+x28-y9_28 <=1 
C307: x9+x29-y9_29 <=1 
C308: x9+x31 <=1 
C309: x9+x32-y9_32 <=1 
C310: x9+x33-y9_33 <=1 
C311: x9+x34-y9_34 <=1 
C312: x9+x36 <=1 
C313: x9+x37 <=1 
C314: x9+x38-y9_38 <=1 
C315: x9+x40-y9_40 <=1 
C316: x9+x42 <=1 
C317: x9+x43-y9_43 <=1 
C318: x9+x44-y9_44 <=1 
C319: x9+x45-y9_45 <=1 
C320: x9+x47-y9_47 <=1 
C321: x9+x49 <=1 
C322: x9+x52 <=1 
C323: x9+x53 <=1 
C324: x9+x56 <=1 
C325: x9+x59 <=1 
C326: x9+x60-y9_60 <=1 
C327: x10+x11-y10_11 <=1 
C328: x10+x14 <=1 
C329: x10+x15-y10_15 <=1 
C330: x10+x16 <=1 
C331: x10+x18 <=1 
C332: x10+x19 <=1 
C333: x10+x22 <=1 
C334: x10+x23-y10_23 <=1 
C335: x10+x24-y10_24 <=1 
C336: x10+x26 <=1 
C337: x10+x29-y10_29 <=1 
C338: x10+x30 <=1 
C339: x10+x32-y10_32 <=1 
C340: x10+x33-y10_33 <=1 
C341: x10+x34-y10_34 <=1 
C342: x10+x36-y10_36 <=1 
C343: x10+x37 <=1 
C344: x10+x38-y10_38 <=1 
C345: x10+x40 <=1 
C346: x10+x41-y10_41 <=1 
C347: x10+x43-y10_43 <=1 
C348: x10+x45 <=1 
C349: x10+x47-y10_47 <=1 
C350: x10+x48-y10_48 <=1 
C351: x10+x49 <=1 
C352: x10+x50 <=1 
C353: x10+x51-y10_51 <=1 
C354: x10+x52-y10_52 <=1 
C355: x10+x53 <=1 
C356: x10+x54 <=1 
C357: x10+x56-y10_56 <=1 
C358: x10+x58-y10_58 <=1 
C359: x10+x59-y10_59 <=1 
C360: x10+x60-y10_60 <=1 
C361: x11+x14 <=1 
C362: x11+x15 <=1 
C363: x11+x20 <=1 
C364: x11+x22 <=1 
C365: x11+x23 <=1 
C366: x11+x25-y11_25 <=1 
C367: x11+x27 <=1 
C368: x11+x29-y11_29 <=1 
C369: x11+x30-y11_30 <=1 
C370: x11+x32-y11_32 <=1 
C371: x11+x35 <=1 
C372: x11+x38 <=1 
C373: x11+x39 <=1 
C374: x11+x40-y11_40 <=1 
C375: x11+x44 <=1 
C376: x11+x45-y11_45 <=1 
C377: x11+x46-y11_46 <=1 
C378: x11+x47-y11_47 <=1 
C379: x11+x49-y11_49 <=1 
C380: x11+x50 <=1 
C381: x11+x52 <=1 
C382: x11+x56-y11_56 <=1 
C383: x11+x57 <=1 
C384: x11+x58 <=1 
C385: x11+x60-y11_60 <=1 
C386: x12+x13 <=1 
C387: x12+x15-y12_15 <=1 
C388: x12+x16 <=1 
C389: x12+x17-y12_17 <=1 
C390: x12+x19-y12_19 <=1 
C391: x12+x20 <=1 
C392: x12+x21 <=1 
C393: x12+x25-y12_25 <=1 
C394: x12+x26-y12_26 <=1 
C395: x12+x27-y12_27 <=1 
C396: x12+x28 <=1 
C397: x12+x29-y12_29 <=1 
C398: x12+x30-y12_30 <=1 
C399: x12+x31-y12_31 <=1 
C400: x12+x32-y12_32 <=1 
C401: x12+x33-y12_33 <=1 
C402: x12+x34-y12_34 <=1 
C403: x12+x35 <=1 
C404: x12+x36 <=1 
C405: x12+x38-y12_38 <=1 
C406: x12+x39 <=1 
C407: x12+x42-y12_42 <=1 
C408: x12+x43 <=1 
C409: x12+x44-y12_44 <=1 
C410: x12+x45-y12_45 <=1 
C411: x12+x50 <=1 
C412: x12+x51-y12_51 <=1 
C413: x12+x52 <=1 
C414: x12+x53-y12_53 <=1 
C415: x12+x54-y12_54 <=1 
C416: x12+x59 <=1 
C417: x12+x60 <=1 
C418: x13+x14 <=1 
C419: x13+x16 <=1 
C420: x13+x18 <=1 
C421: x13+x20 <=1 
C422: x13+x21-y13_21 <=1 
C423: x13+x23-y13_23 <=1 
C424: x13+x24 <=1 
C425: x13+x25 <=1 
C426: x13+x26 <=1 
C427: x13+x27 <=1 
C428: x13+x30-y13_30 <=1 
C429: x13+x31 <=1 
C430: x13+x32 <=1 
C431: x13+x33-y13_33 <=1 
C432: x13+x34-y13_34 <=1 
C433: x13+x36-y13_36 <=1 
C434: x13+x38 <=1 
C435: x13+x42 <=1 
C436: x13+x43 <=1 
C437: x13+x45 <=1 
C438: x13+x46 <=1 
C439: x13+x47-y13_47 <=1 
C440: x13+x50 <=1 
C441: x13+x51 <=1 
C442: x13+x53-y13_53 <=1 
C443: x13+x54 <=1 
C444: x13+x56 <=1 
C445: x13+x57-y13_57 <=1 
C446: x14+x18 <=1 
C447: x14+x20-y14_20 <=1 
C448: x14+x22-y14_22 <=1 
C449: x14+x26-y14_26 <=1 
C450: x14+x27 <=1 
C451: x14+x28-y14_28 <=1 
C452: x14+x30 <=1 
C453: x14+x32 <=1 
C454: x14+x33-y14_33 <=1 
C455: x14+x34-y14_34 <=1 
C456: x14+x36-y14_36 <=1 
C457: x14+x41 <=1 
C458: x14+x42-y14_42 <=1 
C459: x14+x43-y14_43 <=1 
C460: x14+x44-y14_44 <=1 
C461: x14+x49-y14_49 <=1 
C462: x14+x50-y14_50 <=1 
C463: x14+x52-y14_52 <=1 
C464: x14+x53-y14_53 <=1 
C465: x14+x55 <=1 
C466: x14+x56 <=1 
C467: x14+x57 <=1 
C468: x14+x58-y14_58 <=1 
C469: x14+x59 <=1 
C470: x14+x60-y14_60 <=1 
C471: x15+x16 <=1 
C472: x15+x18-y15_18 <=1 
C473: x15+x19 <=1 
C474: x15+x21 <=1 
C475: x15+x22-y15_22 <=1 
C476: x15+x23-y15_23 <=1 
C477: x15+x24 <=1 
C478: x15+x25-y15_25 <=1 
C479: x15+x26-y15_26 <=1 
C480: x15+x30-y15_30 <=1 
C481: x15+x31-y15_31 <=1 
C482: x15+x34 <=1 
C483: x15+x35-y15_35 <=1 
C484: x15+x36 <=1 
C485: x15+x38-y15_38 <=1 
C486: x15+x39-y15_39 <=1 
C487: x15+x41 <=1 
C488: x15+x42-y15_42 <=1 
C489: x15+x44 <=1 
C490: x15+x46-y15_46 <=1 
C491: x15+x47 <=1 
C492: x15+x48-y15_48 <=1 
C493: x15+x50 <=1 
C494: x15+x55 <=1 
C495: x15+x56-y15_56 <=1 
C496: x15+x59 <=1 
C497: x15+x60 <=1 
C498: x16+x17 <=1 
C499: x16+x18-y16_18 <=1 
C500: x16+x19 <=1 
C501: x16+x20 <=1 
C502: x16+x21-y16_21 <=1 
C503: x16+x22-y16_22 <=1 
C504: x16+x24 <=1 
C505: x16+x25 <=1 
C506: x16+x27-y16_27 <=1 
C507: x16+x29-y16_29 <=1 
C508: x16+x32-y16_32 <=1 
C509: x16+x36 <=1 
C510: x16+x37-y16_37 <=1 
C511: x16+x38-y16_38 <=1 
C512: x16+x41-y16_41 <=1 
C513: x16+x42-y16_42 <=1 
C514: x16+x43 <=1 
C515: x16+x44-y16_44 <=1 
C516: x16+x46 <=1 
C517: x16+x48 <=1 
C518: x16+x49-y16_49 <=1 
C519: x16+x50-y16_50 <=1 
C520: x16+x51-y16_51 <=1 
C521: x16+x53 <=1 
C522: x16+x54-y16_54 <=1 
C523: x16+x57-y16_57 <=1 
C524: x16+x58 <=1 
C525: x16+x59 <=1 
C526: x16+x60-y16_60 <=1 
C527: x17+x18-y17_18 <=1 
C528: x17+x21 <=1 
C529: x17+x22 <=1 
C530: x17+x23 <=1 
C531: x17+x24-y17_24 <=1 
C532: x17+x25-y17_25 <=1 
C533: x17+x28-y17_28 <=1 
C534: x17+x29 <=1 
C535: x17+x32 <=1 
C536: x17+x33 <=1 
C537: x17+x35 <=1 
C538: x17+x38-y17_38 <=1 
C539: x17+x39-y17_39 <=1 
C540: x17+x42 <=1 
C541: x17+x43 <=1 
C542: x17+x44 <=1 
C543: x17+x45 <=1 
C544: x17+x47-y17_47 <=1 
C545: x17+x51 <=1 
C546: x17+x52-y17_52 <=1 
C547: x17+x53 <=1 
C548: x17+x55-y17_55 <=1 
C549: x17+x56 <=1 
C550: x17+x59 <=1 
C551: x17+x60 <=1 
C552: x18+x19-y18_19 <=1 
C553: x18+x20 <=1 
C554: x18+x24 <=1 
C555: x18+x25 <=1 
C556: x18+x27 <=1 
C557: x18+x28-y18_28 <=1 
C558: x18+x29-y18_29 <=1 
C559: x18+x30-y18_30 <=1 
C560: x18+x35-y18_35 <=1 
C561: x18+x36 <=1 
C562: x18+x37-y18_37 <=1 
C563: x18+x38-y18_38 <=1 
C564: x18+x39 <=1 
C565: x18+x40 <=1 
C566: x18+x41-y18_41 <=1 
C567: x18+x43 <=1 
C568: x18+x44-y18_44 <=1 
C569: x18+x46 <=1 
C570: x18+x47-y18_47 <=1 
C571: x18+x49 <=1 
C572: x18+x53 <=1 
C573: x18+x54-y18_54 <=1 
C574: x18+x56 <=1 
C575: x18+x58-y18_58 <=1 
C576: x19+x21-y19_21 <=1 
C577: x19+x23-y19_23 <=1 
C578: x19+x25-y19_25 <=1 
C579: x19+x26 <=1 
C580: x19+x27 <=1 
C581: x19+x29-y19_29 <=1 
C582: x19+x30 <=1 
C583: x19+x31-y19_31 <=1 
C584: x19+x33 <=1 
C585: x19+x34 <=1 
C586: x19+x35-y19_35 <=1 
C587: x19+x36-y19_36 <=1 
C588: x19+x39 <=1 
C589: x19+x40 <=1 
C590: x19+x41-y19_41 <=1 
C591: x19+x43 <=1 
C592: x19+x44 <=1 
C593: x19+x46 <=1 
C594: x19+x47-y19_47 <=1 
C595: x19+x49 <=1 
C596: x19+x50 <=1 
C597: x19+x51-y19_51 <=1 
C598: x19+x52-y19_52 <=1 
C599: x19+x53 <=1 
C600: x19+x56-y19_56 <=1 
C601: x19+x58-y19_58 <=1 
C602: x19+x59-y19_59 <=1 
C603: x20+x21 <=1 
C604: x20+x22 <=1 
C605: x20+x24 <=1 
C606: x20+x25-y20_25 <=1 
C607: x20+x27-y20_27 <=1 
C608: x20+x29-y20_29 <=1 
C609: x20+x30-y20_30 <=1 
C610: x20+x31-y20_31 <=1 
C611: x20+x33 <=1 
C612: x20+x35 <=1 
C613: x20+x37-y20_37 <=1 
C614: x20+x39-y20_39 <=1 
C615: x20+x41 <=1 
C616: x20+x43 <=1 
C617: x20+x45 <=1 
C618: x20+x47 <=1 
C619: x20+x48-y20_48 <=1 
C620: x20+x49 <=1 
C621: x20+x51-y20_51 <=1 
C622: x20+x54-y20_54 <=1 
C623: x20+x55-y20_55 <=1 
C624: x20+x56-y20_56 <=1 
C625: x20+x58-y20_58 <=1 
C626: x20+x59 <=1 
C627: x21+x22-y21_22 <=1 
C628: x21+x24 <=1 
C629: x21+x25-y21_25 <=1 
C630: x21+x26-y21_26 <=1 
C631: x21+x27 <=1 
C632: x21+x30-y21_30 <=1 
C633: x21+x31-y21_31 <=1 
C634: x21+x34-y21_34 <=1 
C635: x21+x36-y21_36 <=1 
C636: x21+x37 <=1 
C637: x21+x38 <=1 
C638: x21+x39 <=1 
C639: x21+x41 <=1 
C640: x21+x44 <=1 
C641: x21+x46 <=1 
C642: x21+x47 <=1 
C643: x21+x49-y21_49 <=1 
C644: x21+x50 <=1 
C645: x21+x51-y21_51 <=1 
C646: x21+x54-y21_54 <=1 
C647: x21+x57-y21_57 <=1 
C648: x21+x59-y21_59 <=1 
C649: x22+x23 <=1 
C650: x22+x25-y22_25 <=1 
C651: x22+x27 <=1 
C652: x22+x29 <=1 
C653: x22+x32-y22_32 <=1 
C654: x22+x33-y22_33 <=1 
C655: x22+x34-y22_34 <=1 
C656: x22+x35-y22_35 <=1 
C657: x22+x36 <=1 
C658: x22+x38 <=1 
C659: x22+x40 <=1 
C660: x22+x41 <=1 
C661: x22+x42-y22_42 <=1 
C662: x22+x45-y22_45 <=1 
C663: x22+x47 <=1 
C664: x22+x51-y22_51 <=1 
C665: x22+x52-y22_52 <=1 
C666: x22+x53-y22_53 <=1 
C667: x22+x54-y22_54 <=1 
C668: x22+x55 <=1 
C669: x22+x60-y22_60 <=1 
C670: x23+x25 <=1 
C671: x23+x26-y23_26 <=1 
C672: x23+x27 <=1 
C673: x23+x33-y23_33 <=1 
C674: x23+x34-y23_34 <=1 
C675: x23+x35-y23_35 <=1 
C676: x23+x37 <=1 
C677: x23+x38-y23_38 <=1 
C678: x23+x39-y23_39 <=1 
C679: x23+x41 <=1 
C680: x23+x42 <=1 
C681: x23+x43 <=1 
C682: x23+x44 <=1 
C683: x23+x46 <=1 
C684: x23+x49 <=1 
C685: x23+x50 <=1 
C686: x23+x53-y23_53 <=1 
C687: x23+x55 <=1 
C688: x23+x58-y23_58 <=1 
C689: x23+x59 <=1 
C690: x24+x27 <=1 
C691: x24+x28-y24_28 <=1 
C692: x24+x29 <=1 
C693: x24+x31-y24_31 <=1 
C694: x24+x33-y24_33 <=1 
C695: x24+x34-y24_34 <=1 
C696: x24+x35 <=1 
C697: x24+x36 <=1 
C698: x24+x37 <=1 
C699: x24+x38-y24_38 <=1 
C700: x24+x39-y24_39 <=1 
C701: x24+x40 <=1 
C702: x24+x41-y24_41 <=1 
C703: x24+x42 <=1 
C704: x24+x43 <=1 
C705: x24+x45-y24_45 <=1 
C706: x24+x47-y24_47 <=1 
C707: x24+x49 <=1 
C708: x24+x50-y24_50 <=1 
C709: x24+x52 <=1 
C710: x24+x53-y24_53 <=1 
C711: x24+x54-y24_54 <=1 
C712: x24+x56 <=1 
C713: x24+x57 <=1 
C714: x24+x58-y24_58 <=1 
C715: x24+x59 <=1 
C716: x25+x31-y25_31 <=1 
C717: x25+x32-y25_32 <=1 
C718: x25+x33 <=1 
C719: x25+x36 <=1 
C720: x25+x37 <=1 
C721: x25+x39 <=1 
C722: x25+x40 <=1 
C723: x25+x41-y25_41 <=1 
C724: x25+x42-y25_42 <=1 
C725: x25+x43 <=1 
C726: x25+x48-y25_48 <=1 
C727: x25+x50 <=1 
C728: x25+x52-y25_52 <=1 
C729: x25+x53 <=1 
C730: x25+x54 <=1 
C731: x25+x57-y25_57 <=1 
C732: x25+x59-y25_59 <=1 
C733: x25+x60-y25_60 <=1 
C734: x26+x27-y26_27 <=1 
C735: x26+x30 <=1 
C736: x26+x31 <=1 
C737: x26+x34-y26_34 <=1 
C738: x26+x36 <=1 
C739: x26+x39-y26_39 <=1 
C740: x26+x40-y26_40 <=1 
C741: x26+x42-y26_42 <=1 
C742: x26+x43 <=1 
C743: x26+x44 <=1 
C744: x26+x46 <=1 
C745: x26+x48-y26_48 <=1 
C746: x26+x51-y26_51 <=1 
C747: x26+x54-y26_54 <=1 
C748: x26+x55 <=1 
C749: x26+x56 <=1 
C750: x26+x57 <=1 
C751: x26+x58 <=1 
C752: x26+x60-y26_60 <=1 
C753: x27+x28 <=1 
C754: x27+x29 <=1 
C755: x27+x32-y27_32 <=1 
C756: x27+x33-y27_33 <=1 
C757: x27+x34 <=1 
C758: x27+x36-y27_36 <=1 
C759: x27+x37-y27_37 <=1 
C760: x27+x43-y27_43 <=1 
C761: x27+x47-y27_47 <=1 
C762: x27+x48-y27_48 <=1 
C763: x27+x49-y27_49 <=1 
C764: x27+x50-y27_50 <=1 
C765: x27+x52 <=1 
C766: x27+x53-y27_53 <=1 
C767: x27+x54 <=1 
C768: x27+x57 <=1 
C769: x28+x29 <=1 
C770: x28+x30 <=1 
C771: x28+x32 <=1 
C772: x28+x33 <=1 
C773: x28+x35 <=1 
C774: x28+x36 <=1 
C775: x28+x38 <=1 
C776: x28+x40 <=1 
C777: x28+x42-y28_42 <=1 
C778: x28+x43 <=1 
C779: x28+x44 <=1 
C780: x28+x45 <=1 
C781: x28+x46-y28_46 <=1 
C782: x28+x47-y28_47 <=1 
C783: x28+x48 <=1 
C784: x28+x49 <=1 
C785: x28+x50-y28_50 <=1 
C786: x28+x53-y28_53 <=1 
C787: x28+x57 <=1 
C788: x28+x60 <=1 
C789: x29+x31-y29_31 <=1 
C790: x29+x33 <=1 
C791: x29+x35 <=1 
C792: x29+x36-y29_36 <=1 
C793: x29+x37 <=1 
C794: x29+x38 <=1 
C795: x29+x39-y29_39 <=1 
C796: x29+x41 <=1 
C797: x29+x43 <=1 
C798: x29+x44-y29_44 <=1 
C799: x29+x48-y29_48 <=1 
C800: x29+x51 <=1 
C801: x29+x52 <=1 
C802: x29+x53-y29_53 <=1 
C803: x29+x54 <=1 
C804: x29+x58-y29_58 <=1 
C805: x29+x59 <=1 
C806: x29+x60 <=1 
C807: x30+x31-y30_31 <=1 
C808: x30+x34 <=1 
C809: x30+x38-y30_38 <=1 
C810: x30+x39 <=1 
C811: x30+x40 <=1 
C812: x30+x41-y30_41 <=1 
C813: x30+x44-y30_44 <=1 
C814: x30+x45 <=1 
C815: x30+x47-y30_47 <=1 
C816: x30+x48-y30_48 <=1 
C817: x30+x49 <=1 
C818: x30+x50-y30_50 <=1 
C819: x30+x51 <=1 
C820: x30+x52 <=1 
C821: x30+x54 <=1 
C822: x30+x55-y30_55 <=1 
C823: x30+x56-y30_56 <=1 
C824: x30+x57 <=1 
C825: x30+x59-y30_59 <=1 
C826: x31+x35-y31_35 <=1 
C827: x31+x36-y31_36 <=1 
C828: x31+x38 <=1 
C829: x31+x39-y31_39 <=1 
C830: x31+x41 <=1 
C831: x31+x42 <=1 
C832: x31+x43 <=1 
C833: x31+x44-y31_44 <=1 
C834: x31+x46 <=1 
C835: x31+x47 <=1 
C836: x31+x48 <=1 
C837: x31+x49-y31_49 <=1 
C838: x31+x50-y31_50 <=1 
C839: x31+x51 <=1 
C840: x31+x55 <=1 
C841: x31+x57-y31_57 <=1 
C842: x31+x58-y31_58 <=1 
C843: x31+x59 <=1 
C844: x31+x60-y31_60 <=1 
C845: x32+x34 <=1 
C846: x32+x36-y32_36 <=1 
C847: x32+x38 <=1 
C848: x32+x39-y32_39 <=1 
C849: x32+x41 <=1 
C850: x32+x45-y32_45 <=1 
C851: x32+x46 <=1 
C852: x32+x47-y32_47 <=1 
C853: x32+x49 <=1 
C854: x32+x51 <=1 
C855: x32+x54-y32_54 <=1 
C856: x32+x55-y32_55 <=1 
C857: x32+x56 <=1 
C858: x32+x57-y32_57 <=1 
C859: x32+x58-y32_58 <=1 
C860: x32+x59-y32_59 <=1 
C861: x32+x60-y32_60 <=1 
C862: x33+x36 <=1 
C863: x33+x38 <=1 
C864: x33+x39 <=1 
C865: x33+x42 <=1 
C866: x33+x43-y33_43 <=1 
C867: x33+x44-y33_44 <=1 
C868: x33+x45 <=1 
C869: x33+x46-y33_46 <=1 
C870: x33+x48-y33_48 <=1 
C871: x33+x50 <=1 
C872: x33+x52 <=1 
C873: x33+x54 <=1 
C874: x33+x55 <=1 
C875: x33+x56 <=1 
C876: x33+x57-y33_57 <=1 
C877: x33+x58-y33_58 <=1 
C878: x33+x59-y33_59 <=1 
C879: x33+x60-y33_60 <=1 
C880: x34+x36-y34_36 <=1 
C881: x34+x38-y34_38 <=1 
C882: x34+x40-y34_40 <=1 
C883: x34+x41 <=1 
C884: x34+x45 <=1 
C885: x34+x46 <=1 
C886: x34+x47 <=1 
C887: x34+x49-y34_49 <=1 
C888: x34+x50-y34_50 <=1 
C889: x34+x51-y34_51 <=1 
C890: x34+x52 <=1 
C891: x34+x53-y34_53 <=1 
C892: x34+x55-y34_55 <=1 
C893: x34+x56 <=1 
C894: x34+x57-y34_57 <=1 
C895: x34+x59 <=1 
C896: x35+x38 <=1 
C897: x35+x40 <=1 
C898: x35+x41 <=1 
C899: x35+x42 <=1 
C900: x35+x43-y35_43 <=1 
C901: x35+x44-y35_44 <=1 
C902: x35+x46-y35_46 <=1 
C903: x35+x48-y35_48 <=1 
C904: x35+x49-y35_49 <=1 
C905: x35+x53 <=1 
C906: x35+x57 <=1 
C907: x35+x58 <=1 
C908: x36+x37 <=1 
C909: x36+x39 <=1 
C910: x36+x40 <=1 
C911: x36+x41 <=1 
C912: x36+x43-y36_43 <=1 
C913: x36+x44 <=1 
C914: x36+x47 <=1 
C915: x36+x48 <=1 
C916: x36+x49-y36_49 <=1 
C917: x36+x50 <=1 
C918: x36+x52 <=1 
C919: x36+x55 <=1 
C920: x36+x56-y36_56 <=1 
C921: x36+x60-y36_60 <=1 
C922: x37+x38-y37_38 <=1 
C923: x37+x39-y37_39 <=1 
C924: x37+x40 <=1 
C925: x37+x41 <=1 
C926: x37+x42 <=1 
C927: x37+x44 <=1 
C928: x37+x45-y37_45 <=1 
C929: x37+x46 <=1 
C930: x37+x52-y37_52 <=1 
C931: x37+x53 <=1 
C932: x37+x56 <=1 
C933: x37+x60 <=1 
C934: x38+x41-y38_41 <=1 
C935: x38+x42-y38_42 <=1 
C936: x38+x48 <=1 
C937: x38+x50-y38_50 <=1 
C938: x38+x52-y38_52 <=1 
C939: x38+x53-y38_53 <=1 
C940: x38+x54 <=1 
C941: x38+x55 <=1 
C942: x38+x56-y38_56 <=1 
C943: x38+x57 <=1 
C944: x38+x59-y38_59 <=1 
C945: x38+x60 <=1 
C946: x39+x40-y39_40 <=1 
C947: x39+x43 <=1 
C948: x39+x45-y39_45 <=1 
C949: x39+x48 <=1 
C950: x39+x49-y39_49 <=1 
C951: x39+x51-y39_51 <=1 
C952: x39+x55 <=1 
C953: x39+x56 <=1 
C954: x39+x58-y39_58 <=1 
C955: x39+x59-y39_59 <=1 
C956: x40+x41 <=1 
C957: x40+x42-y40_42 <=1 
C958: x40+x43 <=1 
C959: x40+x47 <=1 
C960: x40+x49-y40_49 <=1 
C961: x40+x52 <=1 
C962: x40+x53 <=1 
C963: x40+x54-y40_54 <=1 
C964: x40+x56-y40_56 <=1 
C965: x40+x57-y40_57 <=1 
C966: x40+x58-y40_58 <=1 
C967: x40+x59 <=1 
C968: x40+x60-y40_60 <=1 
C969: x41+x43-y41_43 <=1 
C970: x41+x46-y41_46 <=1 
C971: x41+x52-y41_52 <=1 
C972: x41+x53-y41_53 <=1 
C973: x41+x55-y41_55 <=1 
C974: x41+x56-y41_56 <=1 
C975: x41+x57-y41_57 <=1 
C976: x42+x43 <=1 
C977: x42+x44-y42_44 <=1 
C978: x42+x45 <=1 
C979: x42+x46-y42_46 <=1 
C980: x42+x47 <=1 
C981: x42+x48-y42_48 <=1 
C982: x42+x49 <=1 
C983: x42+x52-y42_52 <=1 
C984: x42+x53 <=1 
C985: x42+x54 <=1 
C986: x42+x56 <=1 
C987: x42+x57-y42_57 <=1 
C988: x42+x58 <=1 
C989: x42+x59-y42_59 <=1 
C990: x43+x44-y43_44 <=1 
C991: x43+x45 <=1 
C992: x43+x48-y43_48 <=1 
C993: x43+x49 <=1 
C994: x43+x51-y43_51 <=1 
C995: x43+x53 <=1 
C996: x43+x55 <=1 
C997: x43+x56-y43_56 <=1 
C998: x43+x58 <=1 
C999: x44+x45-y44_45 <=1 
C1000: x44+x46 <=1 
C1001: x44+x47 <=1 
C1002: x44+x49 <=1 
C1003: x44+x50 <=1 
C1004: x44+x51-y44_51 <=1 
C1005: x44+x53-y44_53 <=1 
C1006: x44+x56-y44_56 <=1 
C1007: x44+x57 <=1 
C1008: x44+x58-y44_58 <=1 
C1009: x44+x59 <=1 
C1010: x45+x47 <=1 
C1011: x45+x49 <=1 
C1012: x45+x50 <=1 
C1013: x45+x51-y45_51 <=1 
C1014: x45+x52 <=1 
C1015: x45+x56 <=1 
C1016: x45+x59-y45_59 <=1 
C1017: x45+x60-y45_60 <=1 
C1018: x46+x47 <=1 
C1019: x46+x49 <=1 
C1020: x46+x50 <=1 
C1021: x46+x52-y46_52 <=1 
C1022: x46+x53-y46_53 <=1 
C1023: x46+x56-y46_56 <=1 
C1024: x46+x59 <=1 
C1025: x46+x60 <=1 
C1026: x47+x50 <=1 
C1027: x47+x51 <=1 
C1028: x47+x52-y47_52 <=1 
C1029: x47+x53 <=1 
C1030: x47+x54-y47_54 <=1 
C1031: x47+x55-y47_55 <=1 
C1032: x47+x56-y47_56 <=1 
C1033: x47+x57 <=1 
C1034: x47+x58-y47_58 <=1 
C1035: x47+x59-y47_59 <=1 
C1036: x47+x60 <=1 
C1037: x48+x49 <=1 
C1038: x48+x51-y48_51 <=1 
C1039: x48+x52-y48_52 <=1 
C1040: x48+x54-y48_54 <=1 
C1041: x48+x55-y48_55 <=1 
C1042: x48+x57 <=1 
C1043: x48+x58 <=1 
C1044: x48+x60 <=1 
C1045: x49+x51-y49_51 <=1 
C1046: x49+x52-y49_52 <=1 
C1047: x49+x53-y49_53 <=1 
C1048: x49+x56 <=1 
C1049: x49+x57-y49_57 <=1 
C1050: x49+x58 <=1 
C1051: x49+x59 <=1 
C1052: x50+x51-y50_51 <=1 
C1053: x50+x52 <=1 
C1054: x50+x54 <=1 
C1055: x50+x55 <=1 
C1056: x50+x56-y50_56 <=1 
C1057: x50+x57 <=1 
C1058: x50+x59-y50_59 <=1 
C1059: x51+x52 <=1 
C1060: x51+x53-y51_53 <=1 
C1061: x51+x54 <=1 
C1062: x51+x56 <=1 
C1063: x51+x57-y51_57 <=1 
C1064: x51+x58-y51_58 <=1 
C1065: x51+x59 <=1 
C1066: x51+x60-y51_60 <=1 
C1067: x52+x55 <=1 
C1068: x52+x56-y52_56 <=1 
C1069: x52+x57 <=1 
C1070: x52+x60 <=1 
C1071: x53+x55 <=1 
C1072: x53+x57-y53_57 <=1 
C1073: x53+x58 <=1 
C1074: x53+x59-y53_59 <=1 
C1075: x53+x60-y53_60 <=1 
C1076: x54+x55 <=1 
C1077: x54+x56-y54_56 <=1 
C1078: x54+x57-y54_57 <=1 
C1079: x54+x60 <=1 
C1080: x55+x56-y55_56 <=1 
C1081: x55+x58 <=1 
C1082: x55+x59 <=1 
C1083: x55+x60 <=1 
C1084: x56+x58-y56_58 <=1 
C1085: x57+x58 <=1 
C1086: x57+x59-y57_59 <=1 
C1087: x57+x60 <=1 
C1088: x58+x60 <=1 
C1089: x59+x60-y59_60 <=1 

binary
x0
x1
x2
x3
x4
x5
x6
x7
x8
x9
x10
x11
x12
x13
x14
x15
x16
x17
x18
x19
x20
x21
x22
x23
x24
x25
x26
x27
x28
x29
x30
x31
x32
x33
x34
x35
x36
x37
x38
x39
x40
x41
x42
x43
x44
x45
x46
x47
x48
x49
x50
x51
x52
x53
x54
x55
x56
x57
x58
x59
x60
