problem_generation/data/GISP/train/er_n=61_m=1089_p=0.60_SET2_setparam=100.00_alpha=0.50_359.sol
objective value:                                 1083
x0                                                  1 	(obj:100)
x2                                                  1 	(obj:100)
x10                                                 1 	(obj:100)
x12                                                 1 	(obj:100)
x25                                                 1 	(obj:100)
x27                                                 1 	(obj:100)
x41                                                 1 	(obj:100)
x42                                                 1 	(obj:100)
x44                                                 1 	(obj:100)
x51                                                 1 	(obj:100)
x55                                                 1 	(obj:100)
y2_41                                               1 	(obj:-1)
y2_27                                               1 	(obj:-1)
y44_51                                              1 	(obj:-1)
y25_42                                              1 	(obj:-1)
y12_44                                              1 	(obj:-1)
y42_44                                              1 	(obj:-1)
y12_25                                              1 	(obj:-1)
y12_42                                              1 	(obj:-1)
y0_27                                               1 	(obj:-1)
y41_55                                              1 	(obj:-1)
y25_41                                              1 	(obj:-1)
y0_2                                                1 	(obj:-1)
y10_51                                              1 	(obj:-1)
y12_51                                              1 	(obj:-1)
y12_27                                              1 	(obj:-1)
y2_51                                               1 	(obj:-1)
y10_41                                              1 	(obj:-1)
